(set-logic HORN)
(set-info :source |
    Benchmark: C_VC
    Output by Princess (http://www.philipp.ruemmer.org/princess.shtml)
|)
(set-info :status unknown)
(declare-fun inv_main13 (Int Int Int Int) Bool)
(declare-fun inv_main16 (Int Int Int Int) Bool)
(declare-fun inv_main3 (Int) Bool)
(declare-fun inv_main38 (Int Int Int Int) Bool)
(declare-fun inv_main55 (Int Int Int Int) Bool)
(declare-fun inv_main58 (Int Int Int Int) Bool)
(assert (inv_main3 1 ) )
(assert (forall ((var0 Int)) (forall ((var1 Int)) (forall ((var2 Int)) (forall ((var3 Int)) (or (not (and (inv_main55 var2 var1 var0 var3 ) (not (<= 0 (+ var1 (- 1) ) ) ) ) ) (inv_main58 var2 var1 var0 var3 ) ) ) ) ) ) )
(assert (forall ((var0 Int)) (forall ((var1 Int)) (forall ((var2 Int)) (forall ((var3 Int)) (or (not (and (inv_main13 var2 var1 var0 var3 ) (= var3 0 ) ) ) (inv_main16 var2 var1 var0 var3 ) ) ) ) ) ) )
(assert (forall ((var0 Int)) (forall ((var1 Int)) (forall ((var2 Int)) (forall ((var3 Int)) (forall ((var4 Int)) (forall ((var5 Int)) (or (not (and (inv_main16 var3 var2 var1 var5 ) (= var4 0 ) ) ) (inv_main38 var3 var2 var4 var0 ) ) ) ) ) ) ) ) )
(assert (forall ((var0 Int)) (forall ((var1 Int)) (forall ((var2 Int)) (forall ((var3 Int)) (or (not (and (inv_main38 var2 var1 var0 var3 ) (not (= var3 0 ) ) ) ) (inv_main55 (+ var2 (- 1) ) var1 var0 var3 ) ) ) ) ) ) )
(assert (forall ((var0 Int)) (forall ((var1 Int)) (forall ((var2 Int)) (forall ((var3 Int)) (or (not (and (inv_main38 var2 var1 var0 var3 ) (= var3 0 ) ) ) (inv_main55 var2 var1 var0 var3 ) ) ) ) ) ) )
(assert (forall ((var0 Int)) (forall ((var1 Int)) (forall ((var2 Int)) (forall ((var3 Int)) (or (not (and (inv_main55 var2 var1 var0 var3 ) (<= 0 (+ var1 (- 1) ) ) ) ) (inv_main55 var2 (+ var1 (* (- 1) var2 ) ) var0 var3 ) ) ) ) ) ) )
(assert (forall ((var0 Int)) (forall ((var1 Int)) (forall ((var2 Int)) (forall ((var3 Int)) (forall ((var4 Int)) (forall ((var5 Int)) (or (not (and (inv_main13 var2 var1 var0 var4 ) (and (and (not (= var5 0 ) ) (not (= var3 0 ) ) ) (not (= var4 0 ) ) ) ) ) (inv_main16 var2 var1 var0 var4 ) ) ) ) ) ) ) ) )
(assert (forall ((var0 Int)) (forall ((var1 Int)) (forall ((var2 Int)) (forall ((var3 Int)) (forall ((var4 Int)) (forall ((var5 Int)) (or (not (and (inv_main13 var3 var2 var1 var5 ) (and (and (= var4 0 ) (not (= var0 0 ) ) ) (not (= var5 0 ) ) ) ) ) (inv_main16 var3 var2 var1 var5 ) ) ) ) ) ) ) ) )
(assert (forall ((var0 Int)) (forall ((var1 Int)) (forall ((var2 Int)) (forall ((var3 Int)) (forall ((var4 Int)) (forall ((var5 Int)) (or (not (and (inv_main13 var2 var1 var0 var3 ) (and (and (not (= var5 0 ) ) (= var4 0 ) ) (not (= var3 0 ) ) ) ) ) (inv_main16 var2 var1 var0 var3 ) ) ) ) ) ) ) ) )
(assert (forall ((var0 Int)) (forall ((var1 Int)) (forall ((var2 Int)) (forall ((var3 Int)) (forall ((var4 Int)) (forall ((var5 Int)) (or (not (and (inv_main13 var4 var3 var2 var5 ) (and (and (= var1 0 ) (= var0 0 ) ) (not (= var5 0 ) ) ) ) ) (inv_main16 var4 var3 var2 var5 ) ) ) ) ) ) ) ) )
(assert (forall ((var0 Int)) (forall ((var1 Int)) (forall ((var2 Int)) (forall ((var3 Int)) (forall ((var4 Int)) (forall ((var5 Int)) (forall ((var6 Int)) (forall ((var7 Int)) (or (not (and (inv_main16 var4 var3 var2 var6 ) (and (and (not (= var7 0 ) ) (not (= var0 0 ) ) ) (not (= var5 0 ) ) ) ) ) (inv_main38 var4 var3 var5 var1 ) ) ) ) ) ) ) ) ) ) )
(assert (forall ((var0 Int)) (forall ((var1 Int)) (forall ((var2 Int)) (forall ((var3 Int)) (forall ((var4 Int)) (forall ((var5 Int)) (forall ((var6 Int)) (forall ((var7 Int)) (or (not (and (inv_main16 var4 var3 var2 var6 ) (and (and (= var0 0 ) (not (= var7 0 ) ) ) (not (= var5 0 ) ) ) ) ) (inv_main38 var4 var3 var5 var1 ) ) ) ) ) ) ) ) ) ) )
(assert (forall ((var0 Int)) (forall ((var1 Int)) (forall ((var2 Int)) (forall ((var3 Int)) (forall ((var4 Int)) (forall ((var5 Int)) (forall ((var6 Int)) (forall ((var7 Int)) (or (not (and (inv_main16 var4 var3 var2 var6 ) (and (and (not (= var0 0 ) ) (= var7 0 ) ) (not (= var5 0 ) ) ) ) ) (inv_main38 var4 var3 var5 var1 ) ) ) ) ) ) ) ) ) ) )
(assert (forall ((var0 Int)) (forall ((var1 Int)) (forall ((var2 Int)) (forall ((var3 Int)) (forall ((var4 Int)) (forall ((var5 Int)) (forall ((var6 Int)) (forall ((var7 Int)) (or (not (and (inv_main16 var4 var3 var2 var6 ) (and (and (= var7 0 ) (= var0 0 ) ) (not (= var5 0 ) ) ) ) ) (inv_main38 var4 var3 var5 var1 ) ) ) ) ) ) ) ) ) ) )
(assert (forall ((var0 Int)) (forall ((var1 Int)) (forall ((var2 Int)) (forall ((var3 Int)) (or (not (and (inv_main3 var3 ) (and (not (= var1 0 ) ) (and (<= 0 (+ 1000000 (* (- 1) var2 ) ) ) (<= 0 (+ var2 1000000 ) ) ) ) ) ) (inv_main13 (+ var3 (- 1) ) var2 var1 var0 ) ) ) ) ) ) )
(assert (forall ((var0 Int)) (forall ((var1 Int)) (forall ((var2 Int)) (forall ((var3 Int)) (or (not (and (inv_main3 var2 ) (and (= var1 0 ) (and (<= 0 (+ 1000000 (* (- 1) var3 ) ) ) (<= 0 (+ var3 1000000 ) ) ) ) ) ) (inv_main13 var2 var3 var1 var0 ) ) ) ) ) ) )
(assert (forall ((var0 Int)) (forall ((var1 Int)) (forall ((var2 Int)) (forall ((var3 Int)) (not (and (inv_main58 var2 var1 var0 var3 ) (not (<= 0 (* (- 1) var1 ) ) ) ) ) ) ) ) ) )
(check-sat)
